(set-logic QF_UF)
(declare-fun A0 () Bool)
(declare-fun A1 () Bool)
(declare-fun A2 () Bool)
(declare-fun A3 () Bool)
(declare-fun A4 () Bool)
(declare-fun A5 () Bool)
(declare-fun A6 () Bool)
(declare-fun A8 () Bool)
(declare-fun A9 () Bool)
(declare-fun A10 () Bool)
(declare-fun A11 () Bool)
(declare-fun A13 () Bool)
(declare-fun A15 () Bool)
(declare-fun A16 () Bool)
(declare-fun A17 () Bool)
(declare-fun A18 () Bool)
(declare-fun A19 () Bool)
(declare-fun A20 () Bool)
(declare-fun A21 () Bool)
(declare-fun A22 () Bool)
(declare-fun A23 () Bool)
(declare-fun A24 () Bool)
(assert (let ((.def_0 (not A10))) (let ((.def_1 (and .def_0 A13))) (let ((.def_2 (not .def_1))) (let ((.def_3 (not A21))) (let ((.def_4 (= .def_3 A6))) (let ((.def_5 (not .def_4))) (let ((.def_6 (or .def_5 .def_2))) (let ((.def_7 (not A1))) (let ((.def_8 (or A5 .def_7))) (let ((.def_9 (or A1 A8))) (let ((.def_10 (not .def_9))) (let ((.def_11 (or .def_10 .def_8))) (let ((.def_12 (= .def_11 .def_6))) (let ((.def_13 (not A4))) (let ((.def_14 (not A11))) (let ((.def_15 (and .def_14 .def_13))) (let ((.def_16 (not .def_15))) (let ((.def_17 (not A8))) (let ((.def_18 (not A9))) (let ((.def_19 (= .def_18 .def_17))) (let ((.def_20 (and .def_19 .def_16))) (let ((.def_21 (and A17 A8))) (let ((.def_22 (not .def_21))) (let ((.def_23 (not A24))) (let ((.def_24 (not A16))) (let ((.def_25 (and .def_24 .def_23))) (let ((.def_26 (and .def_25 .def_22))) (let ((.def_27 (not .def_26))) (let ((.def_28 (or .def_27 .def_20))) (let ((.def_29 (not .def_28))) (let ((.def_30 (or .def_29 .def_12))) (let ((.def_31 (or A19 A22))) (let ((.def_32 (not .def_31))) (let ((.def_33 (not A23))) (let ((.def_34 (or A5 .def_33))) (let ((.def_35 (not .def_34))) (let ((.def_36 (or .def_35 .def_32))) (let ((.def_37 (not .def_36))) (let ((.def_38 (not A3))) (let ((.def_39 (or .def_38 A13))) (let ((.def_40 (not .def_39))) (let ((.def_41 (not A19))) (let ((.def_42 (not A0))) (let ((.def_43 (or .def_42 .def_41))) (let ((.def_44 (not .def_43))) (let ((.def_45 (or .def_44 .def_40))) (let ((.def_46 (not .def_45))) (let ((.def_47 (or .def_46 .def_37))) (let ((.def_48 (not A20))) (let ((.def_49 (or .def_48 A15))) (let ((.def_50 (not A6))) (let ((.def_51 (= A4 .def_50))) (let ((.def_52 (not .def_51))) (let ((.def_53 (or .def_52 .def_49))) (let ((.def_54 (and .def_38 A6))) (let ((.def_55 (or A24 .def_24))) (let ((.def_56 (not .def_55))) (let ((.def_57 (or .def_56 .def_54))) (let ((.def_58 (not .def_57))) (let ((.def_59 (or .def_58 .def_53))) (let ((.def_60 (not .def_59))) (let ((.def_61 (or .def_60 .def_47))) (let ((.def_62 (not .def_61))) (let ((.def_63 (and .def_62 .def_30))) (let ((.def_64 (or A2 A21))) (let ((.def_65 (and A15 .def_23))) (let ((.def_66 (and .def_65 .def_64))) (let ((.def_67 (not .def_66))) (let ((.def_68 (= A18 .def_38))) (let ((.def_69 (not .def_68))) (let ((.def_70 (and A19 .def_0))) (let ((.def_71 (not .def_70))) (let ((.def_72 (or .def_71 .def_69))) (let ((.def_73 (not .def_72))) (let ((.def_74 (or .def_73 .def_67))) (let ((.def_75 (= A8 .def_23))) (let ((.def_76 (or .def_48 .def_3))) (let ((.def_77 (not .def_76))) (let ((.def_78 (and .def_77 .def_75))) (let ((.def_79 (not .def_78))) (let ((.def_80 (and .def_23 A5))) (let ((.def_81 (and .def_7 A10))) (let ((.def_82 (not .def_81))) (let ((.def_83 (and .def_82 .def_80))) (let ((.def_84 (not .def_83))) (let ((.def_85 (or .def_84 .def_79))) (let ((.def_86 (not .def_85))) (let ((.def_87 (and .def_86 .def_74))) (let ((.def_88 (not A22))) (let ((.def_89 (and .def_88 .def_48))) (let ((.def_90 (not A2))) (let ((.def_91 (or A18 .def_90))) (let ((.def_92 (not .def_91))) (let ((.def_93 (and .def_92 .def_89))) (let ((.def_94 (not .def_93))) (let ((.def_95 (and A21 .def_23))) (let ((.def_96 (or .def_18 A13))) (let ((.def_97 (= .def_96 .def_95))) (let ((.def_98 (or .def_97 .def_94))) (let ((.def_99 (and A6 A8))) (let ((.def_100 (and A23 A21))) (let ((.def_101 (not .def_100))) (let ((.def_102 (and .def_101 .def_99))) (let ((.def_103 (not .def_102))) (let ((.def_104 (and .def_7 .def_90))) (let ((.def_105 (not .def_104))) (let ((.def_106 (or .def_90 A21))) (let ((.def_107 (not .def_106))) (let ((.def_108 (= .def_107 .def_105))) (let ((.def_109 (not .def_108))) (let ((.def_110 (= .def_109 .def_103))) (let ((.def_111 (not .def_110))) (let ((.def_112 (and .def_111 .def_98))) (let ((.def_113 (and .def_112 .def_87))) (let ((.def_114 (not .def_113))) (let ((.def_115 (and .def_114 .def_63))) .def_115)))))))))))))))))))))))))))))))))))))))))))))))))))))))))))))))))))))))))))))))))))))))))))))))))))))))))))))))))))))
(check-sat)
